p cnf 50 1234
1 1 3 0
1 -1 -3 0
1 2 3 0
1 -2 -3 0
1 1 4 0
1 -1 -4 0
1 3 4 0
1 -3 -4 0
1 1 5 0
1 -1 -5 0
1 1 6 0
1 -1 -6 0
1 2 6 0
1 -2 -6 0
1 3 6 0
1 -3 -6 0
1 4 6 0
1 -4 -6 0
1 5 6 0
1 -5 -6 0
1 3 7 0
1 -3 -7 0
1 4 7 0
1 -4 -7 0
1 1 8 0
1 -1 -8 0
1 3 8 0
1 -3 -8 0
1 4 8 0
1 -4 -8 0
1 6 8 0
1 -6 -8 0
1 7 8 0
1 -7 -8 0
1 1 9 0
1 -1 -9 0
1 4 9 0
1 -4 -9 0
1 6 9 0
1 -6 -9 0
1 1 10 0
1 -1 -10 0
1 2 10 0
1 -2 -10 0
1 4 10 0
1 -4 -10 0
1 7 10 0
1 -7 -10 0
1 8 10 0
1 -8 -10 0
1 9 10 0
1 -9 -10 0
1 3 11 0
1 -3 -11 0
1 4 11 0
1 -4 -11 0
1 9 11 0
1 -9 -11 0
1 10 11 0
1 -10 -11 0
1 3 12 0
1 -3 -12 0
1 4 12 0
1 -4 -12 0
1 8 12 0
1 -8 -12 0
1 10 12 0
1 -10 -12 0
1 1 13 0
1 -1 -13 0
1 3 13 0
1 -3 -13 0
1 4 13 0
1 -4 -13 0
1 5 13 0
1 -5 -13 0
1 6 13 0
1 -6 -13 0
1 10 13 0
1 -10 -13 0
1 12 13 0
1 -12 -13 0
1 1 14 0
1 -1 -14 0
1 3 14 0
1 -3 -14 0
1 4 14 0
1 -4 -14 0
1 8 14 0
1 -8 -14 0
1 10 14 0
1 -10 -14 0
1 11 14 0
1 -11 -14 0
1 12 14 0
1 -12 -14 0
1 13 14 0
1 -13 -14 0
1 2 15 0
1 -2 -15 0
1 3 15 0
1 -3 -15 0
1 4 15 0
1 -4 -15 0
1 5 15 0
1 -5 -15 0
1 8 15 0
1 -8 -15 0
1 10 15 0
1 -10 -15 0
1 11 15 0
1 -11 -15 0
1 12 15 0
1 -12 -15 0
1 4 16 0
1 -4 -16 0
1 5 16 0
1 -5 -16 0
1 8 16 0
1 -8 -16 0
1 9 16 0
1 -9 -16 0
1 13 16 0
1 -13 -16 0
1 14 16 0
1 -14 -16 0
1 3 17 0
1 -3 -17 0
1 4 17 0
1 -4 -17 0
1 5 17 0
1 -5 -17 0
1 8 17 0
1 -8 -17 0
1 10 17 0
1 -10 -17 0
1 14 17 0
1 -14 -17 0
1 3 18 0
1 -3 -18 0
1 4 18 0
1 -4 -18 0
1 5 18 0
1 -5 -18 0
1 13 18 0
1 -13 -18 0
1 14 18 0
1 -14 -18 0
1 15 18 0
1 -15 -18 0
1 17 18 0
1 -17 -18 0
1 1 19 0
1 -1 -19 0
1 3 19 0
1 -3 -19 0
1 5 19 0
1 -5 -19 0
1 8 19 0
1 -8 -19 0
1 9 19 0
1 -9 -19 0
1 10 19 0
1 -10 -19 0
1 11 19 0
1 -11 -19 0
1 16 19 0
1 -16 -19 0
1 17 19 0
1 -17 -19 0
1 18 19 0
1 -18 -19 0
1 1 20 0
1 -1 -20 0
1 2 20 0
1 -2 -20 0
1 4 20 0
1 -4 -20 0
1 5 20 0
1 -5 -20 0
1 7 20 0
1 -7 -20 0
1 8 20 0
1 -8 -20 0
1 9 20 0
1 -9 -20 0
1 11 20 0
1 -11 -20 0
1 14 20 0
1 -14 -20 0
1 15 20 0
1 -15 -20 0
1 17 20 0
1 -17 -20 0
1 19 20 0
1 -19 -20 0
1 1 21 0
1 -1 -21 0
1 3 21 0
1 -3 -21 0
1 5 21 0
1 -5 -21 0
1 6 21 0
1 -6 -21 0
1 7 21 0
1 -7 -21 0
1 8 21 0
1 -8 -21 0
1 10 21 0
1 -10 -21 0
1 12 21 0
1 -12 -21 0
1 13 21 0
1 -13 -21 0
1 14 21 0
1 -14 -21 0
1 17 21 0
1 -17 -21 0
1 20 21 0
1 -20 -21 0
1 2 22 0
1 -2 -22 0
1 3 22 0
1 -3 -22 0
1 7 22 0
1 -7 -22 0
1 9 22 0
1 -9 -22 0
1 12 22 0
1 -12 -22 0
1 14 22 0
1 -14 -22 0
1 15 22 0
1 -15 -22 0
1 16 22 0
1 -16 -22 0
1 4 23 0
1 -4 -23 0
1 6 23 0
1 -6 -23 0
1 7 23 0
1 -7 -23 0
1 10 23 0
1 -10 -23 0
1 12 23 0
1 -12 -23 0
1 13 23 0
1 -13 -23 0
1 14 23 0
1 -14 -23 0
1 16 23 0
1 -16 -23 0
1 18 23 0
1 -18 -23 0
1 22 23 0
1 -22 -23 0
1 5 24 0
1 -5 -24 0
1 7 24 0
1 -7 -24 0
1 9 24 0
1 -9 -24 0
1 13 24 0
1 -13 -24 0
1 16 24 0
1 -16 -24 0
1 19 24 0
1 -19 -24 0
1 20 24 0
1 -20 -24 0
1 21 24 0
1 -21 -24 0
1 23 24 0
1 -23 -24 0
1 1 25 0
1 -1 -25 0
1 3 25 0
1 -3 -25 0
1 4 25 0
1 -4 -25 0
1 5 25 0
1 -5 -25 0
1 6 25 0
1 -6 -25 0
1 7 25 0
1 -7 -25 0
1 10 25 0
1 -10 -25 0
1 12 25 0
1 -12 -25 0
1 14 25 0
1 -14 -25 0
1 15 25 0
1 -15 -25 0
1 16 25 0
1 -16 -25 0
1 17 25 0
1 -17 -25 0
1 18 25 0
1 -18 -25 0
1 19 25 0
1 -19 -25 0
1 20 25 0
1 -20 -25 0
1 23 25 0
1 -23 -25 0
1 24 25 0
1 -24 -25 0
1 1 26 0
1 -1 -26 0
1 2 26 0
1 -2 -26 0
1 3 26 0
1 -3 -26 0
1 4 26 0
1 -4 -26 0
1 5 26 0
1 -5 -26 0
1 7 26 0
1 -7 -26 0
1 11 26 0
1 -11 -26 0
1 14 26 0
1 -14 -26 0
1 15 26 0
1 -15 -26 0
1 17 26 0
1 -17 -26 0
1 18 26 0
1 -18 -26 0
1 19 26 0
1 -19 -26 0
1 21 26 0
1 -21 -26 0
1 3 27 0
1 -3 -27 0
1 4 27 0
1 -4 -27 0
1 8 27 0
1 -8 -27 0
1 9 27 0
1 -9 -27 0
1 15 27 0
1 -15 -27 0
1 16 27 0
1 -16 -27 0
1 19 27 0
1 -19 -27 0
1 21 27 0
1 -21 -27 0
1 2 28 0
1 -2 -28 0
1 3 28 0
1 -3 -28 0
1 4 28 0
1 -4 -28 0
1 11 28 0
1 -11 -28 0
1 14 28 0
1 -14 -28 0
1 15 28 0
1 -15 -28 0
1 16 28 0
1 -16 -28 0
1 21 28 0
1 -21 -28 0
1 24 28 0
1 -24 -28 0
1 26 28 0
1 -26 -28 0
1 1 29 0
1 -1 -29 0
1 4 29 0
1 -4 -29 0
1 10 29 0
1 -10 -29 0
1 12 29 0
1 -12 -29 0
1 13 29 0
1 -13 -29 0
1 14 29 0
1 -14 -29 0
1 17 29 0
1 -17 -29 0
1 18 29 0
1 -18 -29 0
1 21 29 0
1 -21 -29 0
1 22 29 0
1 -22 -29 0
1 24 29 0
1 -24 -29 0
1 1 30 0
1 -1 -30 0
1 2 30 0
1 -2 -30 0
1 6 30 0
1 -6 -30 0
1 11 30 0
1 -11 -30 0
1 14 30 0
1 -14 -30 0
1 15 30 0
1 -15 -30 0
1 19 30 0
1 -19 -30 0
1 22 30 0
1 -22 -30 0
1 23 30 0
1 -23 -30 0
1 25 30 0
1 -25 -30 0
1 28 30 0
1 -28 -30 0
1 29 30 0
1 -29 -30 0
1 1 31 0
1 -1 -31 0
1 3 31 0
1 -3 -31 0
1 4 31 0
1 -4 -31 0
1 6 31 0
1 -6 -31 0
1 9 31 0
1 -9 -31 0
1 10 31 0
1 -10 -31 0
1 11 31 0
1 -11 -31 0
1 13 31 0
1 -13 -31 0
1 14 31 0
1 -14 -31 0
1 15 31 0
1 -15 -31 0
1 17 31 0
1 -17 -31 0
1 19 31 0
1 -19 -31 0
1 20 31 0
1 -20 -31 0
1 24 31 0
1 -24 -31 0
1 26 31 0
1 -26 -31 0
1 2 32 0
1 -2 -32 0
1 3 32 0
1 -3 -32 0
1 4 32 0
1 -4 -32 0
1 5 32 0
1 -5 -32 0
1 6 32 0
1 -6 -32 0
1 9 32 0
1 -9 -32 0
1 10 32 0
1 -10 -32 0
1 11 32 0
1 -11 -32 0
1 13 32 0
1 -13 -32 0
1 14 32 0
1 -14 -32 0
1 18 32 0
1 -18 -32 0
1 19 32 0
1 -19 -32 0
1 20 32 0
1 -20 -32 0
1 24 32 0
1 -24 -32 0
1 27 32 0
1 -27 -32 0
1 28 32 0
1 -28 -32 0
1 29 32 0
1 -29 -32 0
1 1 33 0
1 -1 -33 0
1 2 33 0
1 -2 -33 0
1 6 33 0
1 -6 -33 0
1 7 33 0
1 -7 -33 0
1 8 33 0
1 -8 -33 0
1 11 33 0
1 -11 -33 0
1 13 33 0
1 -13 -33 0
1 15 33 0
1 -15 -33 0
1 18 33 0
1 -18 -33 0
1 20 33 0
1 -20 -33 0
1 21 33 0
1 -21 -33 0
1 24 33 0
1 -24 -33 0
1 26 33 0
1 -26 -33 0
1 28 33 0
1 -28 -33 0
1 31 33 0
1 -31 -33 0
1 32 33 0
1 -32 -33 0
1 2 34 0
1 -2 -34 0
1 6 34 0
1 -6 -34 0
1 8 34 0
1 -8 -34 0
1 16 34 0
1 -16 -34 0
1 18 34 0
1 -18 -34 0
1 19 34 0
1 -19 -34 0
1 23 34 0
1 -23 -34 0
1 25 34 0
1 -25 -34 0
1 27 34 0
1 -27 -34 0
1 28 34 0
1 -28 -34 0
1 29 34 0
1 -29 -34 0
1 30 34 0
1 -30 -34 0
1 31 34 0
1 -31 -34 0
1 33 34 0
1 -33 -34 0
1 4 35 0
1 -4 -35 0
1 7 35 0
1 -7 -35 0
1 8 35 0
1 -8 -35 0
1 9 35 0
1 -9 -35 0
1 11 35 0
1 -11 -35 0
1 12 35 0
1 -12 -35 0
1 14 35 0
1 -14 -35 0
1 16 35 0
1 -16 -35 0
1 17 35 0
1 -17 -35 0
1 18 35 0
1 -18 -35 0
1 20 35 0
1 -20 -35 0
1 22 35 0
1 -22 -35 0
1 24 35 0
1 -24 -35 0
1 25 35 0
1 -25 -35 0
1 28 35 0
1 -28 -35 0
1 29 35 0
1 -29 -35 0
1 31 35 0
1 -31 -35 0
1 33 35 0
1 -33 -35 0
1 1 36 0
1 -1 -36 0
1 2 36 0
1 -2 -36 0
1 3 36 0
1 -3 -36 0
1 7 36 0
1 -7 -36 0
1 10 36 0
1 -10 -36 0
1 11 36 0
1 -11 -36 0
1 15 36 0
1 -15 -36 0
1 16 36 0
1 -16 -36 0
1 18 36 0
1 -18 -36 0
1 20 36 0
1 -20 -36 0
1 21 36 0
1 -21 -36 0
1 22 36 0
1 -22 -36 0
1 26 36 0
1 -26 -36 0
1 31 36 0
1 -31 -36 0
1 32 36 0
1 -32 -36 0
1 33 36 0
1 -33 -36 0
1 35 36 0
1 -35 -36 0
1 2 37 0
1 -2 -37 0
1 5 37 0
1 -5 -37 0
1 6 37 0
1 -6 -37 0
1 8 37 0
1 -8 -37 0
1 9 37 0
1 -9 -37 0
1 12 37 0
1 -12 -37 0
1 13 37 0
1 -13 -37 0
1 16 37 0
1 -16 -37 0
1 18 37 0
1 -18 -37 0
1 20 37 0
1 -20 -37 0
1 21 37 0
1 -21 -37 0
1 22 37 0
1 -22 -37 0
1 23 37 0
1 -23 -37 0
1 25 37 0
1 -25 -37 0
1 27 37 0
1 -27 -37 0
1 29 37 0
1 -29 -37 0
1 32 37 0
1 -32 -37 0
1 34 37 0
1 -34 -37 0
1 35 37 0
1 -35 -37 0
1 36 37 0
1 -36 -37 0
1 4 38 0
1 -4 -38 0
1 5 38 0
1 -5 -38 0
1 6 38 0
1 -6 -38 0
1 7 38 0
1 -7 -38 0
1 9 38 0
1 -9 -38 0
1 10 38 0
1 -10 -38 0
1 12 38 0
1 -12 -38 0
1 13 38 0
1 -13 -38 0
1 14 38 0
1 -14 -38 0
1 17 38 0
1 -17 -38 0
1 20 38 0
1 -20 -38 0
1 24 38 0
1 -24 -38 0
1 26 38 0
1 -26 -38 0
1 29 38 0
1 -29 -38 0
1 30 38 0
1 -30 -38 0
1 31 38 0
1 -31 -38 0
1 34 38 0
1 -34 -38 0
1 37 38 0
1 -37 -38 0
1 3 39 0
1 -3 -39 0
1 6 39 0
1 -6 -39 0
1 7 39 0
1 -7 -39 0
1 9 39 0
1 -9 -39 0
1 10 39 0
1 -10 -39 0
1 11 39 0
1 -11 -39 0
1 12 39 0
1 -12 -39 0
1 13 39 0
1 -13 -39 0
1 14 39 0
1 -14 -39 0
1 15 39 0
1 -15 -39 0
1 16 39 0
1 -16 -39 0
1 20 39 0
1 -20 -39 0
1 24 39 0
1 -24 -39 0
1 26 39 0
1 -26 -39 0
1 27 39 0
1 -27 -39 0
1 28 39 0
1 -28 -39 0
1 30 39 0
1 -30 -39 0
1 33 39 0
1 -33 -39 0
1 36 39 0
1 -36 -39 0
1 37 39 0
1 -37 -39 0
1 38 39 0
1 -38 -39 0
1 2 40 0
1 -2 -40 0
1 4 40 0
1 -4 -40 0
1 5 40 0
1 -5 -40 0
1 6 40 0
1 -6 -40 0
1 7 40 0
1 -7 -40 0
1 8 40 0
1 -8 -40 0
1 9 40 0
1 -9 -40 0
1 10 40 0
1 -10 -40 0
1 11 40 0
1 -11 -40 0
1 12 40 0
1 -12 -40 0
1 13 40 0
1 -13 -40 0
1 14 40 0
1 -14 -40 0
1 16 40 0
1 -16 -40 0
1 17 40 0
1 -17 -40 0
1 18 40 0
1 -18 -40 0
1 19 40 0
1 -19 -40 0
1 21 40 0
1 -21 -40 0
1 24 40 0
1 -24 -40 0
1 25 40 0
1 -25 -40 0
1 26 40 0
1 -26 -40 0
1 28 40 0
1 -28 -40 0
1 30 40 0
1 -30 -40 0
1 31 40 0
1 -31 -40 0
1 32 40 0
1 -32 -40 0
1 36 40 0
1 -36 -40 0
1 37 40 0
1 -37 -40 0
1 4 41 0
1 -4 -41 0
1 5 41 0
1 -5 -41 0
1 6 41 0
1 -6 -41 0
1 10 41 0
1 -10 -41 0
1 11 41 0
1 -11 -41 0
1 14 41 0
1 -14 -41 0
1 18 41 0
1 -18 -41 0
1 19 41 0
1 -19 -41 0
1 22 41 0
1 -22 -41 0
1 23 41 0
1 -23 -41 0
1 25 41 0
1 -25 -41 0
1 27 41 0
1 -27 -41 0
1 30 41 0
1 -30 -41 0
1 31 41 0
1 -31 -41 0
1 35 41 0
1 -35 -41 0
1 39 41 0
1 -39 -41 0
1 2 42 0
1 -2 -42 0
1 3 42 0
1 -3 -42 0
1 4 42 0
1 -4 -42 0
1 5 42 0
1 -5 -42 0
1 6 42 0
1 -6 -42 0
1 8 42 0
1 -8 -42 0
1 10 42 0
1 -10 -42 0
1 13 42 0
1 -13 -42 0
1 14 42 0
1 -14 -42 0
1 15 42 0
1 -15 -42 0
1 16 42 0
1 -16 -42 0
1 17 42 0
1 -17 -42 0
1 18 42 0
1 -18 -42 0
1 20 42 0
1 -20 -42 0
1 21 42 0
1 -21 -42 0
1 22 42 0
1 -22 -42 0
1 23 42 0
1 -23 -42 0
1 25 42 0
1 -25 -42 0
1 28 42 0
1 -28 -42 0
1 30 42 0
1 -30 -42 0
1 31 42 0
1 -31 -42 0
1 32 42 0
1 -32 -42 0
1 35 42 0
1 -35 -42 0
1 41 42 0
1 -41 -42 0
1 1 43 0
1 -1 -43 0
1 2 43 0
1 -2 -43 0
1 3 43 0
1 -3 -43 0
1 4 43 0
1 -4 -43 0
1 5 43 0
1 -5 -43 0
1 6 43 0
1 -6 -43 0
1 7 43 0
1 -7 -43 0
1 9 43 0
1 -9 -43 0
1 10 43 0
1 -10 -43 0
1 11 43 0
1 -11 -43 0
1 14 43 0
1 -14 -43 0
1 15 43 0
1 -15 -43 0
1 16 43 0
1 -16 -43 0
1 19 43 0
1 -19 -43 0
1 21 43 0
1 -21 -43 0
1 23 43 0
1 -23 -43 0
1 28 43 0
1 -28 -43 0
1 29 43 0
1 -29 -43 0
1 31 43 0
1 -31 -43 0
1 33 43 0
1 -33 -43 0
1 34 43 0
1 -34 -43 0
1 36 43 0
1 -36 -43 0
1 38 43 0
1 -38 -43 0
1 40 43 0
1 -40 -43 0
1 42 43 0
1 -42 -43 0
1 4 44 0
1 -4 -44 0
1 5 44 0
1 -5 -44 0
1 6 44 0
1 -6 -44 0
1 7 44 0
1 -7 -44 0
1 8 44 0
1 -8 -44 0
1 9 44 0
1 -9 -44 0
1 12 44 0
1 -12 -44 0
1 13 44 0
1 -13 -44 0
1 14 44 0
1 -14 -44 0
1 15 44 0
1 -15 -44 0
1 19 44 0
1 -19 -44 0
1 21 44 0
1 -21 -44 0
1 22 44 0
1 -22 -44 0
1 23 44 0
1 -23 -44 0
1 24 44 0
1 -24 -44 0
1 25 44 0
1 -25 -44 0
1 26 44 0
1 -26 -44 0
1 29 44 0
1 -29 -44 0
1 34 44 0
1 -34 -44 0
1 36 44 0
1 -36 -44 0
1 37 44 0
1 -37 -44 0
1 39 44 0
1 -39 -44 0
1 40 44 0
1 -40 -44 0
1 41 44 0
1 -41 -44 0
1 42 44 0
1 -42 -44 0
1 43 44 0
1 -43 -44 0
1 5 45 0
1 -5 -45 0
1 8 45 0
1 -8 -45 0
1 10 45 0
1 -10 -45 0
1 14 45 0
1 -14 -45 0
1 15 45 0
1 -15 -45 0
1 16 45 0
1 -16 -45 0
1 17 45 0
1 -17 -45 0
1 18 45 0
1 -18 -45 0
1 19 45 0
1 -19 -45 0
1 23 45 0
1 -23 -45 0
1 24 45 0
1 -24 -45 0
1 27 45 0
1 -27 -45 0
1 28 45 0
1 -28 -45 0
1 29 45 0
1 -29 -45 0
1 30 45 0
1 -30 -45 0
1 31 45 0
1 -31 -45 0
1 32 45 0
1 -32 -45 0
1 38 45 0
1 -38 -45 0
1 41 45 0
1 -41 -45 0
1 43 45 0
1 -43 -45 0
1 1 46 0
1 -1 -46 0
1 2 46 0
1 -2 -46 0
1 3 46 0
1 -3 -46 0
1 4 46 0
1 -4 -46 0
1 8 46 0
1 -8 -46 0
1 9 46 0
1 -9 -46 0
1 10 46 0
1 -10 -46 0
1 12 46 0
1 -12 -46 0
1 13 46 0
1 -13 -46 0
1 19 46 0
1 -19 -46 0
1 20 46 0
1 -20 -46 0
1 22 46 0
1 -22 -46 0
1 32 46 0
1 -32 -46 0
1 34 46 0
1 -34 -46 0
1 37 46 0
1 -37 -46 0
1 38 46 0
1 -38 -46 0
1 39 46 0
1 -39 -46 0
1 42 46 0
1 -42 -46 0
1 43 46 0
1 -43 -46 0
1 44 46 0
1 -44 -46 0
1 1 47 0
1 -1 -47 0
1 2 47 0
1 -2 -47 0
1 5 47 0
1 -5 -47 0
1 7 47 0
1 -7 -47 0
1 9 47 0
1 -9 -47 0
1 11 47 0
1 -11 -47 0
1 15 47 0
1 -15 -47 0
1 21 47 0
1 -21 -47 0
1 22 47 0
1 -22 -47 0
1 23 47 0
1 -23 -47 0
1 24 47 0
1 -24 -47 0
1 25 47 0
1 -25 -47 0
1 26 47 0
1 -26 -47 0
1 27 47 0
1 -27 -47 0
1 28 47 0
1 -28 -47 0
1 34 47 0
1 -34 -47 0
1 35 47 0
1 -35 -47 0
1 37 47 0
1 -37 -47 0
1 39 47 0
1 -39 -47 0
1 40 47 0
1 -40 -47 0
1 42 47 0
1 -42 -47 0
1 43 47 0
1 -43 -47 0
1 45 47 0
1 -45 -47 0
1 46 47 0
1 -46 -47 0
1 2 48 0
1 -2 -48 0
1 4 48 0
1 -4 -48 0
1 6 48 0
1 -6 -48 0
1 8 48 0
1 -8 -48 0
1 13 48 0
1 -13 -48 0
1 14 48 0
1 -14 -48 0
1 16 48 0
1 -16 -48 0
1 17 48 0
1 -17 -48 0
1 18 48 0
1 -18 -48 0
1 19 48 0
1 -19 -48 0
1 20 48 0
1 -20 -48 0
1 21 48 0
1 -21 -48 0
1 22 48 0
1 -22 -48 0
1 23 48 0
1 -23 -48 0
1 25 48 0
1 -25 -48 0
1 26 48 0
1 -26 -48 0
1 28 48 0
1 -28 -48 0
1 29 48 0
1 -29 -48 0
1 30 48 0
1 -30 -48 0
1 31 48 0
1 -31 -48 0
1 32 48 0
1 -32 -48 0
1 39 48 0
1 -39 -48 0
1 40 48 0
1 -40 -48 0
1 41 48 0
1 -41 -48 0
1 42 48 0
1 -42 -48 0
1 45 48 0
1 -45 -48 0
1 3 49 0
1 -3 -49 0
1 4 49 0
1 -4 -49 0
1 6 49 0
1 -6 -49 0
1 7 49 0
1 -7 -49 0
1 14 49 0
1 -14 -49 0
1 17 49 0
1 -17 -49 0
1 19 49 0
1 -19 -49 0
1 21 49 0
1 -21 -49 0
1 24 49 0
1 -24 -49 0
1 28 49 0
1 -28 -49 0
1 29 49 0
1 -29 -49 0
1 31 49 0
1 -31 -49 0
1 33 49 0
1 -33 -49 0
1 38 49 0
1 -38 -49 0
1 41 49 0
1 -41 -49 0
1 43 49 0
1 -43 -49 0
1 44 49 0
1 -44 -49 0
1 46 49 0
1 -46 -49 0
1 47 49 0
1 -47 -49 0
1 48 49 0
1 -48 -49 0
1 1 50 0
1 -1 -50 0
1 2 50 0
1 -2 -50 0
1 3 50 0
1 -3 -50 0
1 4 50 0
1 -4 -50 0
1 8 50 0
1 -8 -50 0
1 9 50 0
1 -9 -50 0
1 10 50 0
1 -10 -50 0
1 11 50 0
1 -11 -50 0
1 12 50 0
1 -12 -50 0
1 13 50 0
1 -13 -50 0
1 15 50 0
1 -15 -50 0
1 16 50 0
1 -16 -50 0
1 19 50 0
1 -19 -50 0
1 27 50 0
1 -27 -50 0
1 28 50 0
1 -28 -50 0
1 29 50 0
1 -29 -50 0
1 30 50 0
1 -30 -50 0
1 32 50 0
1 -32 -50 0
1 35 50 0
1 -35 -50 0
1 36 50 0
1 -36 -50 0
1 37 50 0
1 -37 -50 0
1 39 50 0
1 -39 -50 0
1 41 50 0
1 -41 -50 0
1 43 50 0
1 -43 -50 0
1 46 50 0
1 -46 -50 0
1 47 50 0
1 -47 -50 0
